p cnf 89 307
-4 2 0
-4 -3 0
-2 3 4 0
5 4 0
5 3 0
-4 -3 -5 0
6 -1 0
6 -5 0
1 5 -6 0
-8 -2 0
-8 -7 0
2 7 8 0
-9 -3 0
-9 -8 0
3 8 9 0
-6 -9 -10 0
6 9 -10 0
-6 9 10 0
6 -9 10 0
12 11 0
12 4 0
-11 -4 -12 0
-13 12 0
-13 12 0
-12 13 0
2 14 -15 0
-2 -14 -15 0
2 -14 15 0
-2 14 15 0
15 -16 -17 0
-15 16 -17 0
15 16 17 0
-15 -16 17 0
17 -11 -18 0
-17 11 -18 0
17 11 18 0
-17 -11 18 0
13 18 -19 0
-13 -18 -19 0
13 -18 19 0
-13 18 19 0
6 19 -20 0
-6 -19 -20 0
6 -19 20 0
-6 19 20 0
14 2 -21 0
-14 -2 -21 0
14 -2 21 0
-14 2 21 0
-21 8 -22 0
21 -8 -22 0
-21 -8 22 0
21 8 22 0
-23 20 0
-23 22 0
-20 -22 23 0
10 -23 -24 0
-10 23 -24 0
10 23 24 0
-10 -23 24 0
27 -25 0
27 26 0
25 -26 -27 0
-4 27 -28 0
4 -27 -28 0
-4 -27 28 0
4 27 28 0
-30 28 0
-30 -29 0
-28 29 30 0
31 -15 0
31 3 0
15 -3 -31 0
-32 15 0
-32 -17 0
-15 17 32 0
33 32 0
33 1 0
-32 -1 -33 0
34 -12 0
34 -33 0
12 33 -34 0
-35 -31 0
-35 34 0
31 -34 35 0
35 -7 -36 0
-35 7 -36 0
35 7 36 0
-35 -7 36 0
37 -30 0
37 36 0
30 -36 -37 0
-24 37 -38 0
24 -37 -38 0
-24 -37 38 0
24 37 38 0
-39 7 0
-39 -14 0
-7 14 39 0
39 -11 -40 0
-39 11 -40 0
39 11 40 0
-39 -11 40 0
32 15 -41 0
-32 -15 -41 0
32 -15 41 0
-32 15 41 0
-43 42 0
-43 16 0
-42 -16 43 0
44 -43 0
44 29 0
43 -29 -44 0
-41 44 -45 0
41 -44 -45 0
-41 -44 45 0
41 44 45 0
-46 -40 0
-46 -45 0
40 45 46 0
-47 -38 0
-47 46 0
38 -46 47 0
49 18 0
49 48 0
-18 -48 -49 0
-34 43 -50 0
34 -43 -50 0
-34 -43 50 0
34 43 50 0
-51 49 0
-51 -50 0
-49 50 51 0
25 4 -52 0
-25 -4 -52 0
25 -4 52 0
-25 4 52 0
53 -29 0
53 -29 0
29 -53 0
-54 -28 0
-54 2 0
28 -2 54 0
-35 54 -55 0
35 -54 -55 0
-35 -54 55 0
35 54 55 0
56 53 0
56 -55 0
-53 55 -56 0
57 25 0
57 4 0
-25 -4 -57 0
-58 -26 0
-58 -3 0
26 3 58 0
-59 57 0
-59 -58 0
-57 58 59 0
-11 41 -60 0
11 -41 -60 0
-11 -41 60 0
11 41 60 0
61 59 0
61 60 0
-59 -60 -61 0
62 56 0
62 61 0
-56 -61 -62 0
-63 -52 0
-63 62 0
52 -62 63 0
-18 39 -64 0
18 -39 -64 0
-18 -39 64 0
18 39 64 0
-12 64 -65 0
12 -64 -65 0
-12 -64 65 0
12 64 65 0
66 63 0
66 65 0
-63 -65 -66 0
67 -13 0
67 -15 0
13 15 -67 0
-68 31 0
-68 -67 0
-31 67 68 0
69 -66 0
69 68 0
66 -68 -69 0
70 -51 0
70 -69 0
51 69 -70 0
71 -7 0
71 1 0
7 -1 -71 0
6 71 -72 0
-6 -71 -72 0
6 -71 72 0
-6 71 72 0
-72 18 -73 0
72 -18 -73 0
-72 -18 73 0
72 18 73 0
70 -73 -74 0
-70 73 -74 0
70 73 74 0
-70 -73 74 0
75 1 0
75 31 0
-1 -31 -75 0
-27 -5 -76 0
27 5 -76 0
-27 5 76 0
27 -5 76 0
-31 -1 -77 0
31 1 -77 0
-31 1 77 0
31 -1 77 0
77 25 -78 0
-77 -25 -78 0
77 -25 78 0
-77 25 78 0
-79 -76 0
-79 -78 0
76 78 79 0
80 -75 0
80 -79 0
75 79 -80 0
-81 -74 0
-81 80 0
74 -80 81 0
83 -26 0
83 -82 0
26 82 -83 0
-14 -84 -85 0
14 84 -85 0
-14 84 85 0
14 -84 85 0
-41 85 -86 0
41 -85 -86 0
-41 -85 86 0
41 85 86 0
-83 86 -87 0
83 -86 -87 0
-83 -86 87 0
83 86 87 0
-88 81 0
-88 87 0
-81 -87 88 0
89 47 0
89 -88 0
-47 88 -89 0
-65 89 83 0
-62 -30 58 0
-64 -75 41 18 0
79 -62 0
36 -7 0
-19 -67 0
2 -49 -48 0
47 -6 81 0
-66 58 33 20 0
31 -51 -42 89 -50 -62 0
64 -35 62 13 -53 66 0
-72 -41 0
-78 59 -54 0
-57 -29 -16 20 0
84 6 -40 -30 -14 -17 0
78 25 19 -39 -15 -53 0
82 76 -73 20 1 89 0
-45 60 -83 65 86 69 0
46 -34 -6 0
46 -16 87 84 -8 80 0
-89 -72 9 0
-69 25 -73 0
84 29 0
82 80 -14 7 0
17 34 -72 37 -19 35 0
-76 8 0
-47 -67 -82 -35 -66 0
-37 -78 31 -41 0
56 -76 40 0
-79 35 -15 -55 71 0
-84 26 46 72 0
-82 -85 28 0
-41 -3 -50 0
-74 -65 -38 18 0
80 65 -24 18 -87 19 0
-50 59 0
7 -39 0
22 -34 76 15 0
-9 -61 64 81 -15 0
15 35 -46 31 14 -26 0
-84 -18 -66 54 -52 -72 0
59 64 89 -80 0
-50 -41 27 -44 -21 0
21 -79 0
59 -3 -6 0
7 -57 -35 -26 37 0
-84 -29 -25 53 47 0
-89 -25 0
33 -40 -64 -79 14 54 0
-84 42 0
-44 -14 76 0
89 0
